c dimacs generated by FastEx
c f501 82
c f510 81
c f511 80
c f601 85
c f610 84
c f611 83
c f701 88
c f710 87
c f711 86
c g51 46
c g61 47
c g71 48
c s512 49
c s513 50
c s514 52
c s523 51
c s524 53
c s534 54
c s612 55
c s613 56
c s614 58
c s615 61
c s623 57
c s624 59
c s625 62
c s634 60
c s635 63
c s645 64
c s712 65
c s713 66
c s714 68
c s715 71
c s716 75
c s723 67
c s724 69
c s725 72
c s726 76
c s734 70
c s735 73
c s736 77
c s745 74
c s746 78
c s756 79
c x51 1
c x510 10
c x511 11
c x512 12
c x513 13
c x514 14
c x515 15
c x52 2
c x53 3
c x54 4
c x55 5
c x56 6
c x57 7
c x58 8
c x59 9
c x61 16
c x610 25
c x611 26
c x612 27
c x613 28
c x614 29
c x615 30
c x62 17
c x63 18
c x64 19
c x65 20
c x66 21
c x67 22
c x68 23
c x69 24
c x71 31
c x710 40
c x711 41
c x712 42
c x713 43
c x714 44
c x715 45
c x72 32
c x73 33
c x74 34
c x75 35
c x76 36
c x77 37
c x78 38
c x79 39
p cnf 88 1276
-49 -1 0
-49 -2 0
-49 -3 0
-49 4 -82 0
-49 -4 82 0
-49 5 -82 0
-49 -5 82 0
-49 6 -82 0
-49 -6 82 0
-49 7 -82 0
-49 -7 82 0
-49 8 -81 0
-49 -8 81 0
-49 9 -81 0
-49 -9 81 0
-49 10 -81 0
-49 -10 81 0
-49 11 -81 0
-49 -11 81 0
-49 12 -80 0
-49 -12 80 0
-49 13 -80 0
-49 -13 80 0
-49 14 -80 0
-49 -14 80 0
-49 15 -80 0
-49 -15 80 0
-50 -1 0
-50 2 -82 0
-50 -2 82 0
-50 3 -82 0
-50 -3 82 0
-50 -4 0
-50 -5 0
-50 6 -82 0
-50 -6 82 0
-50 7 -82 0
-50 -7 82 0
-50 8 -81 0
-50 -8 81 0
-50 9 -81 0
-50 -9 81 0
-50 10 -80 0
-50 -10 80 0
-50 11 -80 0
-50 -11 80 0
-50 12 -81 0
-50 -12 81 0
-50 13 -81 0
-50 -13 81 0
-50 14 -80 0
-50 -14 80 0
-50 15 -80 0
-50 -15 80 0
-51 -1 0
-51 2 -82 0
-51 -2 82 0
-51 3 -82 0
-51 -3 82 0
-51 4 -81 0
-51 -4 81 0
-51 5 -81 0
-51 -5 81 0
-51 6 -80 0
-51 -6 80 0
-51 7 -80 0
-51 -7 80 0
-51 -8 0
-51 -9 0
-51 10 -82 0
-51 -10 82 0
-51 11 -82 0
-51 -11 82 0
-51 12 -81 0
-51 -12 81 0
-51 13 -81 0
-51 -13 81 0
-51 14 -80 0
-51 -14 80 0
-51 15 -80 0
-51 -15 80 0
-52 1 -82 0
-52 -1 82 0
-52 -2 0
-52 3 -82 0
-52 -3 82 0
-52 -4 0
-52 5 -82 0
-52 -5 82 0
-52 -6 0
-52 7 -82 0
-52 -7 82 0
-52 8 -81 0
-52 -8 81 0
-52 9 -80 0
-52 -9 80 0
-52 10 -81 0
-52 -10 81 0
-52 11 -80 0
-52 -11 80 0
-52 12 -81 0
-52 -12 81 0
-52 13 -80 0
-52 -13 80 0
-52 14 -81 0
-52 -14 81 0
-52 15 -80 0
-52 -15 80 0
-53 1 -82 0
-53 -1 82 0
-53 -2 0
-53 3 -82 0
-53 -3 82 0
-53 4 -81 0
-53 -4 81 0
-53 5 -80 0
-53 -5 80 0
-53 6 -81 0
-53 -6 81 0
-53 7 -80 0
-53 -7 80 0
-53 -8 0
-53 9 -82 0
-53 -9 82 0
-53 -10 0
-53 11 -82 0
-53 -11 82 0
-53 12 -81 0
-53 -12 81 0
-53 13 -80 0
-53 -13 80 0
-53 14 -81 0
-53 -14 81 0
-53 15 -80 0
-53 -15 80 0
-54 1 -82 0
-54 -1 82 0
-54 2 -81 0
-54 -2 81 0
-54 3 -80 0
-54 -3 80 0
-54 -4 0
-54 5 -82 0
-54 -5 82 0
-54 6 -81 0
-54 -6 81 0
-54 7 -80 0
-54 -7 80 0
-54 -8 0
-54 9 -82 0
-54 -9 82 0
-54 10 -81 0
-54 -10 81 0
-54 11 -80 0
-54 -11 80 0
-54 -12 0
-54 13 -82 0
-54 -13 82 0
-54 14 -81 0
-54 -14 81 0
-54 15 -80 0
-54 -15 80 0
-55 -16 0
-55 -17 0
-55 -18 0
-55 19 -85 0
-55 -19 85 0
-55 20 -85 0
-55 -20 85 0
-55 21 -85 0
-55 -21 85 0
-55 22 -85 0
-55 -22 85 0
-55 23 -84 0
-55 -23 84 0
-55 24 -84 0
-55 -24 84 0
-55 25 -84 0
-55 -25 84 0
-55 26 -84 0
-55 -26 84 0
-55 27 -83 0
-55 -27 83 0
-55 28 -83 0
-55 -28 83 0
-55 29 -83 0
-55 -29 83 0
-55 30 -83 0
-55 -30 83 0
-56 -16 0
-56 17 -85 0
-56 -17 85 0
-56 18 -85 0
-56 -18 85 0
-56 -19 0
-56 -20 0
-56 21 -85 0
-56 -21 85 0
-56 22 -85 0
-56 -22 85 0
-56 23 -84 0
-56 -23 84 0
-56 24 -84 0
-56 -24 84 0
-56 25 -83 0
-56 -25 83 0
-56 26 -83 0
-56 -26 83 0
-56 27 -84 0
-56 -27 84 0
-56 28 -84 0
-56 -28 84 0
-56 29 -83 0
-56 -29 83 0
-56 30 -83 0
-56 -30 83 0
-57 -16 0
-57 17 -85 0
-57 -17 85 0
-57 18 -85 0
-57 -18 85 0
-57 19 -84 0
-57 -19 84 0
-57 20 -84 0
-57 -20 84 0
-57 21 -83 0
-57 -21 83 0
-57 22 -83 0
-57 -22 83 0
-57 -23 0
-57 -24 0
-57 25 -85 0
-57 -25 85 0
-57 26 -85 0
-57 -26 85 0
-57 27 -84 0
-57 -27 84 0
-57 28 -84 0
-57 -28 84 0
-57 29 -83 0
-57 -29 83 0
-57 30 -83 0
-57 -30 83 0
-58 16 -85 0
-58 -16 85 0
-58 -17 0
-58 18 -85 0
-58 -18 85 0
-58 -19 0
-58 20 -85 0
-58 -20 85 0
-58 -21 0
-58 22 -85 0
-58 -22 85 0
-58 23 -84 0
-58 -23 84 0
-58 24 -83 0
-58 -24 83 0
-58 25 -84 0
-58 -25 84 0
-58 26 -83 0
-58 -26 83 0
-58 27 -84 0
-58 -27 84 0
-58 28 -83 0
-58 -28 83 0
-58 29 -84 0
-58 -29 84 0
-58 30 -83 0
-58 -30 83 0
-59 16 -85 0
-59 -16 85 0
-59 -17 0
-59 18 -85 0
-59 -18 85 0
-59 19 -84 0
-59 -19 84 0
-59 20 -83 0
-59 -20 83 0
-59 21 -84 0
-59 -21 84 0
-59 22 -83 0
-59 -22 83 0
-59 -23 0
-59 24 -85 0
-59 -24 85 0
-59 -25 0
-59 26 -85 0
-59 -26 85 0
-59 27 -84 0
-59 -27 84 0
-59 28 -83 0
-59 -28 83 0
-59 29 -84 0
-59 -29 84 0
-59 30 -83 0
-59 -30 83 0
-60 16 -85 0
-60 -16 85 0
-60 17 -84 0
-60 -17 84 0
-60 18 -83 0
-60 -18 83 0
-60 -19 0
-60 20 -85 0
-60 -20 85 0
-60 21 -84 0
-60 -21 84 0
-60 22 -83 0
-60 -22 83 0
-60 -23 0
-60 24 -85 0
-60 -24 85 0
-60 25 -84 0
-60 -25 84 0
-60 26 -83 0
-60 -26 83 0
-60 -27 0
-60 28 -85 0
-60 -28 85 0
-60 29 -84 0
-60 -29 84 0
-60 30 -83 0
-60 -30 83 0
-61 16 -1 -85 0
-61 -16 -1 85 0
-61 -16 1 0
-61 17 -2 -85 0
-61 -17 -2 85 0
-61 -17 2 0
-61 18 -3 -85 0
-61 -18 -3 85 0
-61 -18 3 0
-61 19 -4 -85 0
-61 -19 -4 85 0
-61 -19 4 0
-61 20 -5 -85 0
-61 -20 -5 85 0
-61 -20 5 0
-61 21 -6 -85 0
-61 -21 -6 85 0
-61 -21 6 0
-61 22 -7 -85 0
-61 -22 -7 85 0
-61 -22 7 0
-61 23 8 -84 0
-61 23 -8 -83 0
-61 -23 8 84 0
-61 -23 -8 83 0
-61 24 9 -84 0
-61 24 -9 -83 0
-61 -24 9 84 0
-61 -24 -9 83 0
-61 25 10 -84 0
-61 25 -10 -83 0
-61 -25 10 84 0
-61 -25 -10 83 0
-61 26 11 -84 0
-61 26 -11 -83 0
-61 -26 11 84 0
-61 -26 -11 83 0
-61 27 12 -84 0
-61 27 -12 -83 0
-61 -27 12 84 0
-61 -27 -12 83 0
-61 28 13 -84 0
-61 28 -13 -83 0
-61 -28 13 84 0
-61 -28 -13 83 0
-61 29 14 -84 0
-61 29 -14 -83 0
-61 -29 14 84 0
-61 -29 -14 83 0
-61 30 15 -84 0
-61 30 -15 -83 0
-61 -30 15 84 0
-61 -30 -15 83 0
-62 16 -1 -85 0
-62 -16 -1 85 0
-62 -16 1 0
-62 17 -2 -85 0
-62 -17 -2 85 0
-62 -17 2 0
-62 18 -3 -85 0
-62 -18 -3 85 0
-62 -18 3 0
-62 19 4 -84 0
-62 19 -4 -83 0
-62 -19 4 84 0
-62 -19 -4 83 0
-62 20 5 -84 0
-62 20 -5 -83 0
-62 -20 5 84 0
-62 -20 -5 83 0
-62 21 6 -84 0
-62 21 -6 -83 0
-62 -21 6 84 0
-62 -21 -6 83 0
-62 22 7 -84 0
-62 22 -7 -83 0
-62 -22 7 84 0
-62 -22 -7 83 0
-62 23 -8 -85 0
-62 -23 -8 85 0
-62 -23 8 0
-62 24 -9 -85 0
-62 -24 -9 85 0
-62 -24 9 0
-62 25 -10 -85 0
-62 -25 -10 85 0
-62 -25 10 0
-62 26 -11 -85 0
-62 -26 -11 85 0
-62 -26 11 0
-62 27 12 -84 0
-62 27 -12 -83 0
-62 -27 12 84 0
-62 -27 -12 83 0
-62 28 13 -84 0
-62 28 -13 -83 0
-62 -28 13 84 0
-62 -28 -13 83 0
-62 29 14 -84 0
-62 29 -14 -83 0
-62 -29 14 84 0
-62 -29 -14 83 0
-62 30 15 -84 0
-62 30 -15 -83 0
-62 -30 15 84 0
-62 -30 -15 83 0
-63 16 -1 -85 0
-63 -16 -1 85 0
-63 -16 1 0
-63 17 2 -84 0
-63 17 -2 -83 0
-63 -17 2 84 0
-63 -17 -2 83 0
-63 18 3 -84 0
-63 18 -3 -83 0
-63 -18 3 84 0
-63 -18 -3 83 0
-63 19 -4 -85 0
-63 -19 -4 85 0
-63 -19 4 0
-63 20 -5 -85 0
-63 -20 -5 85 0
-63 -20 5 0
-63 21 6 -84 0
-63 21 -6 -83 0
-63 -21 6 84 0
-63 -21 -6 83 0
-63 22 7 -84 0
-63 22 -7 -83 0
-63 -22 7 84 0
-63 -22 -7 83 0
-63 23 -8 -85 0
-63 -23 -8 85 0
-63 -23 8 0
-63 24 -9 -85 0
-63 -24 -9 85 0
-63 -24 9 0
-63 25 10 -84 0
-63 25 -10 -83 0
-63 -25 10 84 0
-63 -25 -10 83 0
-63 26 11 -84 0
-63 26 -11 -83 0
-63 -26 11 84 0
-63 -26 -11 83 0
-63 27 -12 -85 0
-63 -27 -12 85 0
-63 -27 12 0
-63 28 -13 -85 0
-63 -28 -13 85 0
-63 -28 13 0
-63 29 14 -84 0
-63 29 -14 -83 0
-63 -29 14 84 0
-63 -29 -14 83 0
-63 30 15 -84 0
-63 30 -15 -83 0
-63 -30 15 84 0
-63 -30 -15 83 0
-64 16 1 -84 0
-64 16 -1 -83 0
-64 -16 1 84 0
-64 -16 -1 83 0
-64 17 -2 -85 0
-64 -17 -2 85 0
-64 -17 2 0
-64 18 3 -84 0
-64 18 -3 -83 0
-64 -18 3 84 0
-64 -18 -3 83 0
-64 19 -4 -85 0
-64 -19 -4 85 0
-64 -19 4 0
-64 20 5 -84 0
-64 20 -5 -83 0
-64 -20 5 84 0
-64 -20 -5 83 0
-64 21 -6 -85 0
-64 -21 -6 85 0
-64 -21 6 0
-64 22 7 -84 0
-64 22 -7 -83 0
-64 -22 7 84 0
-64 -22 -7 83 0
-64 23 -8 -85 0
-64 -23 -8 85 0
-64 -23 8 0
-64 24 9 -84 0
-64 24 -9 -83 0
-64 -24 9 84 0
-64 -24 -9 83 0
-64 25 -10 -85 0
-64 -25 -10 85 0
-64 -25 10 0
-64 26 11 -84 0
-64 26 -11 -83 0
-64 -26 11 84 0
-64 -26 -11 83 0
-64 27 -12 -85 0
-64 -27 -12 85 0
-64 -27 12 0
-64 28 13 -84 0
-64 28 -13 -83 0
-64 -28 13 84 0
-64 -28 -13 83 0
-64 29 -14 -85 0
-64 -29 -14 85 0
-64 -29 14 0
-64 30 15 -84 0
-64 30 -15 -83 0
-64 -30 15 84 0
-64 -30 -15 83 0
-65 -31 0
-65 -32 0
-65 -33 0
-65 34 -88 0
-65 -34 88 0
-65 35 -88 0
-65 -35 88 0
-65 36 -88 0
-65 -36 88 0
-65 37 -88 0
-65 -37 88 0
-65 38 -87 0
-65 -38 87 0
-65 39 -87 0
-65 -39 87 0
-65 40 -87 0
-65 -40 87 0
-65 41 -87 0
-65 -41 87 0
-65 42 -86 0
-65 -42 86 0
-65 43 -86 0
-65 -43 86 0
-65 44 -86 0
-65 -44 86 0
-65 45 -86 0
-65 -45 86 0
-66 -31 0
-66 32 -88 0
-66 -32 88 0
-66 33 -88 0
-66 -33 88 0
-66 -34 0
-66 -35 0
-66 36 -88 0
-66 -36 88 0
-66 37 -88 0
-66 -37 88 0
-66 38 -87 0
-66 -38 87 0
-66 39 -87 0
-66 -39 87 0
-66 40 -86 0
-66 -40 86 0
-66 41 -86 0
-66 -41 86 0
-66 42 -87 0
-66 -42 87 0
-66 43 -87 0
-66 -43 87 0
-66 44 -86 0
-66 -44 86 0
-66 45 -86 0
-66 -45 86 0
-67 -31 0
-67 32 -88 0
-67 -32 88 0
-67 33 -88 0
-67 -33 88 0
-67 34 -87 0
-67 -34 87 0
-67 35 -87 0
-67 -35 87 0
-67 36 -86 0
-67 -36 86 0
-67 37 -86 0
-67 -37 86 0
-67 -38 0
-67 -39 0
-67 40 -88 0
-67 -40 88 0
-67 41 -88 0
-67 -41 88 0
-67 42 -87 0
-67 -42 87 0
-67 43 -87 0
-67 -43 87 0
-67 44 -86 0
-67 -44 86 0
-67 45 -86 0
-67 -45 86 0
-68 31 -88 0
-68 -31 88 0
-68 -32 0
-68 33 -88 0
-68 -33 88 0
-68 -34 0
-68 35 -88 0
-68 -35 88 0
-68 -36 0
-68 37 -88 0
-68 -37 88 0
-68 38 -87 0
-68 -38 87 0
-68 39 -86 0
-68 -39 86 0
-68 40 -87 0
-68 -40 87 0
-68 41 -86 0
-68 -41 86 0
-68 42 -87 0
-68 -42 87 0
-68 43 -86 0
-68 -43 86 0
-68 44 -87 0
-68 -44 87 0
-68 45 -86 0
-68 -45 86 0
-69 31 -88 0
-69 -31 88 0
-69 -32 0
-69 33 -88 0
-69 -33 88 0
-69 34 -87 0
-69 -34 87 0
-69 35 -86 0
-69 -35 86 0
-69 36 -87 0
-69 -36 87 0
-69 37 -86 0
-69 -37 86 0
-69 -38 0
-69 39 -88 0
-69 -39 88 0
-69 -40 0
-69 41 -88 0
-69 -41 88 0
-69 42 -87 0
-69 -42 87 0
-69 43 -86 0
-69 -43 86 0
-69 44 -87 0
-69 -44 87 0
-69 45 -86 0
-69 -45 86 0
-70 31 -88 0
-70 -31 88 0
-70 32 -87 0
-70 -32 87 0
-70 33 -86 0
-70 -33 86 0
-70 -34 0
-70 35 -88 0
-70 -35 88 0
-70 36 -87 0
-70 -36 87 0
-70 37 -86 0
-70 -37 86 0
-70 -38 0
-70 39 -88 0
-70 -39 88 0
-70 40 -87 0
-70 -40 87 0
-70 41 -86 0
-70 -41 86 0
-70 -42 0
-70 43 -88 0
-70 -43 88 0
-70 44 -87 0
-70 -44 87 0
-70 45 -86 0
-70 -45 86 0
-71 31 -1 -88 0
-71 -31 -1 88 0
-71 -31 1 0
-71 32 -2 -88 0
-71 -32 -2 88 0
-71 -32 2 0
-71 33 -3 -88 0
-71 -33 -3 88 0
-71 -33 3 0
-71 34 -4 -88 0
-71 -34 -4 88 0
-71 -34 4 0
-71 35 -5 -88 0
-71 -35 -5 88 0
-71 -35 5 0
-71 36 -6 -88 0
-71 -36 -6 88 0
-71 -36 6 0
-71 37 -7 -88 0
-71 -37 -7 88 0
-71 -37 7 0
-71 38 8 -87 0
-71 38 -8 -86 0
-71 -38 8 87 0
-71 -38 -8 86 0
-71 39 9 -87 0
-71 39 -9 -86 0
-71 -39 9 87 0
-71 -39 -9 86 0
-71 40 10 -87 0
-71 40 -10 -86 0
-71 -40 10 87 0
-71 -40 -10 86 0
-71 41 11 -87 0
-71 41 -11 -86 0
-71 -41 11 87 0
-71 -41 -11 86 0
-71 42 12 -87 0
-71 42 -12 -86 0
-71 -42 12 87 0
-71 -42 -12 86 0
-71 43 13 -87 0
-71 43 -13 -86 0
-71 -43 13 87 0
-71 -43 -13 86 0
-71 44 14 -87 0
-71 44 -14 -86 0
-71 -44 14 87 0
-71 -44 -14 86 0
-71 45 15 -87 0
-71 45 -15 -86 0
-71 -45 15 87 0
-71 -45 -15 86 0
-72 31 -1 -88 0
-72 -31 -1 88 0
-72 -31 1 0
-72 32 -2 -88 0
-72 -32 -2 88 0
-72 -32 2 0
-72 33 -3 -88 0
-72 -33 -3 88 0
-72 -33 3 0
-72 34 4 -87 0
-72 34 -4 -86 0
-72 -34 4 87 0
-72 -34 -4 86 0
-72 35 5 -87 0
-72 35 -5 -86 0
-72 -35 5 87 0
-72 -35 -5 86 0
-72 36 6 -87 0
-72 36 -6 -86 0
-72 -36 6 87 0
-72 -36 -6 86 0
-72 37 7 -87 0
-72 37 -7 -86 0
-72 -37 7 87 0
-72 -37 -7 86 0
-72 38 -8 -88 0
-72 -38 -8 88 0
-72 -38 8 0
-72 39 -9 -88 0
-72 -39 -9 88 0
-72 -39 9 0
-72 40 -10 -88 0
-72 -40 -10 88 0
-72 -40 10 0
-72 41 -11 -88 0
-72 -41 -11 88 0
-72 -41 11 0
-72 42 12 -87 0
-72 42 -12 -86 0
-72 -42 12 87 0
-72 -42 -12 86 0
-72 43 13 -87 0
-72 43 -13 -86 0
-72 -43 13 87 0
-72 -43 -13 86 0
-72 44 14 -87 0
-72 44 -14 -86 0
-72 -44 14 87 0
-72 -44 -14 86 0
-72 45 15 -87 0
-72 45 -15 -86 0
-72 -45 15 87 0
-72 -45 -15 86 0
-73 31 -1 -88 0
-73 -31 -1 88 0
-73 -31 1 0
-73 32 2 -87 0
-73 32 -2 -86 0
-73 -32 2 87 0
-73 -32 -2 86 0
-73 33 3 -87 0
-73 33 -3 -86 0
-73 -33 3 87 0
-73 -33 -3 86 0
-73 34 -4 -88 0
-73 -34 -4 88 0
-73 -34 4 0
-73 35 -5 -88 0
-73 -35 -5 88 0
-73 -35 5 0
-73 36 6 -87 0
-73 36 -6 -86 0
-73 -36 6 87 0
-73 -36 -6 86 0
-73 37 7 -87 0
-73 37 -7 -86 0
-73 -37 7 87 0
-73 -37 -7 86 0
-73 38 -8 -88 0
-73 -38 -8 88 0
-73 -38 8 0
-73 39 -9 -88 0
-73 -39 -9 88 0
-73 -39 9 0
-73 40 10 -87 0
-73 40 -10 -86 0
-73 -40 10 87 0
-73 -40 -10 86 0
-73 41 11 -87 0
-73 41 -11 -86 0
-73 -41 11 87 0
-73 -41 -11 86 0
-73 42 -12 -88 0
-73 -42 -12 88 0
-73 -42 12 0
-73 43 -13 -88 0
-73 -43 -13 88 0
-73 -43 13 0
-73 44 14 -87 0
-73 44 -14 -86 0
-73 -44 14 87 0
-73 -44 -14 86 0
-73 45 15 -87 0
-73 45 -15 -86 0
-73 -45 15 87 0
-73 -45 -15 86 0
-74 31 1 -87 0
-74 31 -1 -86 0
-74 -31 1 87 0
-74 -31 -1 86 0
-74 32 -2 -88 0
-74 -32 -2 88 0
-74 -32 2 0
-74 33 3 -87 0
-74 33 -3 -86 0
-74 -33 3 87 0
-74 -33 -3 86 0
-74 34 -4 -88 0
-74 -34 -4 88 0
-74 -34 4 0
-74 35 5 -87 0
-74 35 -5 -86 0
-74 -35 5 87 0
-74 -35 -5 86 0
-74 36 -6 -88 0
-74 -36 -6 88 0
-74 -36 6 0
-74 37 7 -87 0
-74 37 -7 -86 0
-74 -37 7 87 0
-74 -37 -7 86 0
-74 38 -8 -88 0
-74 -38 -8 88 0
-74 -38 8 0
-74 39 9 -87 0
-74 39 -9 -86 0
-74 -39 9 87 0
-74 -39 -9 86 0
-74 40 -10 -88 0
-74 -40 -10 88 0
-74 -40 10 0
-74 41 11 -87 0
-74 41 -11 -86 0
-74 -41 11 87 0
-74 -41 -11 86 0
-74 42 -12 -88 0
-74 -42 -12 88 0
-74 -42 12 0
-74 43 13 -87 0
-74 43 -13 -86 0
-74 -43 13 87 0
-74 -43 -13 86 0
-74 44 -14 -88 0
-74 -44 -14 88 0
-74 -44 14 0
-74 45 15 -87 0
-74 45 -15 -86 0
-74 -45 15 87 0
-74 -45 -15 86 0
-75 31 -16 -88 0
-75 -31 -16 88 0
-75 -31 16 0
-75 32 -17 -88 0
-75 -32 -17 88 0
-75 -32 17 0
-75 33 -18 -88 0
-75 -33 -18 88 0
-75 -33 18 0
-75 34 -19 -88 0
-75 -34 -19 88 0
-75 -34 19 0
-75 35 -20 -88 0
-75 -35 -20 88 0
-75 -35 20 0
-75 36 -21 -88 0
-75 -36 -21 88 0
-75 -36 21 0
-75 37 -22 -88 0
-75 -37 -22 88 0
-75 -37 22 0
-75 38 23 -87 0
-75 38 -23 -86 0
-75 -38 23 87 0
-75 -38 -23 86 0
-75 39 24 -87 0
-75 39 -24 -86 0
-75 -39 24 87 0
-75 -39 -24 86 0
-75 40 25 -87 0
-75 40 -25 -86 0
-75 -40 25 87 0
-75 -40 -25 86 0
-75 41 26 -87 0
-75 41 -26 -86 0
-75 -41 26 87 0
-75 -41 -26 86 0
-75 42 27 -87 0
-75 42 -27 -86 0
-75 -42 27 87 0
-75 -42 -27 86 0
-75 43 28 -87 0
-75 43 -28 -86 0
-75 -43 28 87 0
-75 -43 -28 86 0
-75 44 29 -87 0
-75 44 -29 -86 0
-75 -44 29 87 0
-75 -44 -29 86 0
-75 45 30 -87 0
-75 45 -30 -86 0
-75 -45 30 87 0
-75 -45 -30 86 0
-76 31 -16 -88 0
-76 -31 -16 88 0
-76 -31 16 0
-76 32 -17 -88 0
-76 -32 -17 88 0
-76 -32 17 0
-76 33 -18 -88 0
-76 -33 -18 88 0
-76 -33 18 0
-76 34 19 -87 0
-76 34 -19 -86 0
-76 -34 19 87 0
-76 -34 -19 86 0
-76 35 20 -87 0
-76 35 -20 -86 0
-76 -35 20 87 0
-76 -35 -20 86 0
-76 36 21 -87 0
-76 36 -21 -86 0
-76 -36 21 87 0
-76 -36 -21 86 0
-76 37 22 -87 0
-76 37 -22 -86 0
-76 -37 22 87 0
-76 -37 -22 86 0
-76 38 -23 -88 0
-76 -38 -23 88 0
-76 -38 23 0
-76 39 -24 -88 0
-76 -39 -24 88 0
-76 -39 24 0
-76 40 -25 -88 0
-76 -40 -25 88 0
-76 -40 25 0
-76 41 -26 -88 0
-76 -41 -26 88 0
-76 -41 26 0
-76 42 27 -87 0
-76 42 -27 -86 0
-76 -42 27 87 0
-76 -42 -27 86 0
-76 43 28 -87 0
-76 43 -28 -86 0
-76 -43 28 87 0
-76 -43 -28 86 0
-76 44 29 -87 0
-76 44 -29 -86 0
-76 -44 29 87 0
-76 -44 -29 86 0
-76 45 30 -87 0
-76 45 -30 -86 0
-76 -45 30 87 0
-76 -45 -30 86 0
-77 31 -16 -88 0
-77 -31 -16 88 0
-77 -31 16 0
-77 32 17 -87 0
-77 32 -17 -86 0
-77 -32 17 87 0
-77 -32 -17 86 0
-77 33 18 -87 0
-77 33 -18 -86 0
-77 -33 18 87 0
-77 -33 -18 86 0
-77 34 -19 -88 0
-77 -34 -19 88 0
-77 -34 19 0
-77 35 -20 -88 0
-77 -35 -20 88 0
-77 -35 20 0
-77 36 21 -87 0
-77 36 -21 -86 0
-77 -36 21 87 0
-77 -36 -21 86 0
-77 37 22 -87 0
-77 37 -22 -86 0
-77 -37 22 87 0
-77 -37 -22 86 0
-77 38 -23 -88 0
-77 -38 -23 88 0
-77 -38 23 0
-77 39 -24 -88 0
-77 -39 -24 88 0
-77 -39 24 0
-77 40 25 -87 0
-77 40 -25 -86 0
-77 -40 25 87 0
-77 -40 -25 86 0
-77 41 26 -87 0
-77 41 -26 -86 0
-77 -41 26 87 0
-77 -41 -26 86 0
-77 42 -27 -88 0
-77 -42 -27 88 0
-77 -42 27 0
-77 43 -28 -88 0
-77 -43 -28 88 0
-77 -43 28 0
-77 44 29 -87 0
-77 44 -29 -86 0
-77 -44 29 87 0
-77 -44 -29 86 0
-77 45 30 -87 0
-77 45 -30 -86 0
-77 -45 30 87 0
-77 -45 -30 86 0
-78 31 16 -87 0
-78 31 -16 -86 0
-78 -31 16 87 0
-78 -31 -16 86 0
-78 32 -17 -88 0
-78 -32 -17 88 0
-78 -32 17 0
-78 33 18 -87 0
-78 33 -18 -86 0
-78 -33 18 87 0
-78 -33 -18 86 0
-78 34 -19 -88 0
-78 -34 -19 88 0
-78 -34 19 0
-78 35 20 -87 0
-78 35 -20 -86 0
-78 -35 20 87 0
-78 -35 -20 86 0
-78 36 -21 -88 0
-78 -36 -21 88 0
-78 -36 21 0
-78 37 22 -87 0
-78 37 -22 -86 0
-78 -37 22 87 0
-78 -37 -22 86 0
-78 38 -23 -88 0
-78 -38 -23 88 0
-78 -38 23 0
-78 39 24 -87 0
-78 39 -24 -86 0
-78 -39 24 87 0
-78 -39 -24 86 0
-78 40 -25 -88 0
-78 -40 -25 88 0
-78 -40 25 0
-78 41 26 -87 0
-78 41 -26 -86 0
-78 -41 26 87 0
-78 -41 -26 86 0
-78 42 -27 -88 0
-78 -42 -27 88 0
-78 -42 27 0
-78 43 28 -87 0
-78 43 -28 -86 0
-78 -43 28 87 0
-78 -43 -28 86 0
-78 44 -29 -88 0
-78 -44 -29 88 0
-78 -44 29 0
-78 45 30 -87 0
-78 45 -30 -86 0
-78 -45 30 87 0
-78 -45 -30 86 0
-79 31 1 -16 -88 0
-79 31 -1 16 -87 0
-79 31 -1 -16 -86 0
-79 -31 1 -16 88 0
-79 -31 -1 16 87 0
-79 -31 -1 -16 86 0
-79 -31 1 16 0
-79 32 2 -17 -88 0
-79 32 -2 17 -87 0
-79 32 -2 -17 -86 0
-79 -32 2 -17 88 0
-79 -32 -2 17 87 0
-79 -32 -2 -17 86 0
-79 -32 2 17 0
-79 33 3 -18 -88 0
-79 33 -3 18 -87 0
-79 33 -3 -18 -86 0
-79 -33 3 -18 88 0
-79 -33 -3 18 87 0
-79 -33 -3 -18 86 0
-79 -33 3 18 0
-79 34 4 -19 -88 0
-79 34 -4 19 -87 0
-79 34 -4 -19 -86 0
-79 -34 4 -19 88 0
-79 -34 -4 19 87 0
-79 -34 -4 -19 86 0
-79 -34 4 19 0
-79 35 5 -20 -88 0
-79 35 -5 20 -87 0
-79 35 -5 -20 -86 0
-79 -35 5 -20 88 0
-79 -35 -5 20 87 0
-79 -35 -5 -20 86 0
-79 -35 5 20 0
-79 36 6 -21 -88 0
-79 36 -6 21 -87 0
-79 36 -6 -21 -86 0
-79 -36 6 -21 88 0
-79 -36 -6 21 87 0
-79 -36 -6 -21 86 0
-79 -36 6 21 0
-79 37 7 -22 -88 0
-79 37 -7 22 -87 0
-79 37 -7 -22 -86 0
-79 -37 7 -22 88 0
-79 -37 -7 22 87 0
-79 -37 -7 -22 86 0
-79 -37 7 22 0
-79 38 8 -23 -88 0
-79 38 -8 23 -87 0
-79 38 -8 -23 -86 0
-79 -38 8 -23 88 0
-79 -38 -8 23 87 0
-79 -38 -8 -23 86 0
-79 -38 8 23 0
-79 39 9 -24 -88 0
-79 39 -9 24 -87 0
-79 39 -9 -24 -86 0
-79 -39 9 -24 88 0
-79 -39 -9 24 87 0
-79 -39 -9 -24 86 0
-79 -39 9 24 0
-79 40 10 -25 -88 0
-79 40 -10 25 -87 0
-79 40 -10 -25 -86 0
-79 -40 10 -25 88 0
-79 -40 -10 25 87 0
-79 -40 -10 -25 86 0
-79 -40 10 25 0
-79 41 11 -26 -88 0
-79 41 -11 26 -87 0
-79 41 -11 -26 -86 0
-79 -41 11 -26 88 0
-79 -41 -11 26 87 0
-79 -41 -11 -26 86 0
-79 -41 11 26 0
-79 42 12 -27 -88 0
-79 42 -12 27 -87 0
-79 42 -12 -27 -86 0
-79 -42 12 -27 88 0
-79 -42 -12 27 87 0
-79 -42 -12 -27 86 0
-79 -42 12 27 0
-79 43 13 -28 -88 0
-79 43 -13 28 -87 0
-79 43 -13 -28 -86 0
-79 -43 13 -28 88 0
-79 -43 -13 28 87 0
-79 -43 -13 -28 86 0
-79 -43 13 28 0
-79 44 14 -29 -88 0
-79 44 -14 29 -87 0
-79 44 -14 -29 -86 0
-79 -44 14 -29 88 0
-79 -44 -14 29 87 0
-79 -44 -14 -29 86 0
-79 -44 14 29 0
-79 45 15 -30 -88 0
-79 45 -15 30 -87 0
-79 45 -15 -30 -86 0
-79 -45 15 -30 88 0
-79 -45 -15 30 87 0
-79 -45 -15 -30 86 0
-79 -45 15 30 0
-46 -1 0
-46 -2 0
-46 -3 0
-46 -4 0
-46 -5 0
-46 -6 0
-46 -7 0
-46 -8 0
-46 -9 0
-46 -10 0
-46 -11 0
-46 -12 0
-46 -13 0
-46 -14 0
-46 15 0
-47 -16 0
-47 -17 0
-47 -18 0
-47 -19 0
-47 -20 0
-47 -21 0
-47 -22 0
-47 -23 0
-47 -24 0
-47 -25 0
-47 -26 0
-47 -27 0
-47 -28 0
-47 -29 0
-47 30 0
-48 -31 0
-48 -32 0
-48 -33 0
-48 -34 0
-48 -35 0
-48 -36 0
-48 -37 0
-48 -38 0
-48 -39 0
-48 -40 0
-48 -41 0
-48 -42 0
-48 -43 0
-48 -44 0
-48 45 0
46 47 48 0
49 50 51 52 53 54 0
55 56 57 58 59 60 61 62 63 64 0
65 66 67 68 69 70 71 72 73 74 75 76 77 78 79 0
